Version identifier: 12.10.0.0 | 2019-11-26 | 843d4de
CPXPARAM_WorkMem                                 16384
CPXPARAM_MIP_Limits_TreeMemory                   24576
Tried aggregator 2 times.
MIP Presolve modified 64 coefficients.
Aggregator did 30 substitutions.
Reduced MIP has 134 rows, 160 columns, and 640 nonzeros.
Reduced MIP has 160 binaries, 0 generals, 0 SOSs, and 0 indicators.
Presolve time = 0,00 sec. (0,88 ticks)
Found incumbent of value 440,000000 after 0,00 sec. (1,35 ticks)
Probing time = 0,00 sec. (0,24 ticks)
Tried aggregator 1 time.
Detecting symmetries...
MIP Presolve eliminated 24 rows and 0 columns.
MIP Presolve added 48 rows and 0 columns.
Reduced MIP has 158 rows, 160 columns, and 664 nonzeros.
Reduced MIP has 160 binaries, 0 generals, 0 SOSs, and 0 indicators.
Presolve time = 0,00 sec. (0,82 ticks)
Probing time = 0,00 sec. (0,23 ticks)
Clique table members: 450.
MIP emphasis: balance optimality and feasibility.
MIP search method: dynamic search.
Parallel mode: deterministic, using up to 16 threads.
Root relaxation solution time = 0,00 sec. (0,95 ticks)

        Nodes                                         Cuts/
   Node  Left     Objective  IInf  Best Integer    Best Bound    ItCnt     Gap

*     0+    0                          440,0000        0,0000           100,00%
*     0+    0                          316,0000        0,0000           100,00%
*     0+    0                          302,0000        0,0000           100,00%
*     0+    0                          301,0000        0,0000           100,00%
*     0+    0                          294,0000        0,0000           100,00%
      0     0      151,3333   127      294,0000      151,3333      116   48,53%
      0     0      151,3333   127      294,0000      Cuts: 65      143   48,53%
      0     0      153,3333   127      294,0000     Cuts: 139      203   47,85%
      0     0      155,1811   127      294,0000     Cuts: 129      242   47,22%
      0     0      156,4305   127      294,0000      Cuts: 82      285   46,79%
      0     0      157,0842   127      294,0000      Cuts: 74      324   46,57%
      0     0      172,8956   127      294,0000     Cuts: 139      433   41,19%
      0     0      174,9591   127      294,0000     Cuts: 119      482   40,49%
*     0+    0                          289,0000      174,9591            39,46%
      0     0      176,1262   127      289,0000      Cuts: 78      536   39,06%
      0     0      177,0210   127      289,0000      Cuts: 42      573   38,75%
      0     0      177,6780   127      289,0000      Cuts: 43      603   38,52%
      0     0      178,2976   127      289,0000      Cuts: 35      644   38,31%
      0     0      178,7075   127      289,0000      Cuts: 36      677   38,16%
      0     0      179,1497   127      289,0000      Cuts: 66      726   38,01%
      0     0      179,5404   127      289,0000      Cuts: 46      770   37,88%
      0     0      179,8413   127      289,0000      Cuts: 51      802   37,77%
      0     0      180,1809   127      289,0000      Cuts: 32      836   37,65%
      0     0      180,4029   127      289,0000      Cuts: 53      872   37,58%
      0     0      180,6406   127      289,0000      Cuts: 49      913   37,49%
*     0+    0                          281,0000      180,6406            35,72%
      0     0      180,8368   127      281,0000      Cuts: 55      958   31,08%
      0     0      180,9308   127      281,0000      Cuts: 47      990   31,08%
      0     2      180,9308   144      281,0000      193,6667      990   31,08%
Elapsed time = 0,27 sec. (123,97 ticks, tree = 0,02 MB, solutions = 7)

Clique cuts applied:  50
Cover cuts applied:  157
Flow cuts applied:  4
Mixed integer rounding cuts applied:  23
Zero-half cuts applied:  37
Gomory fractional cuts applied:  3

Root node processing (before b&c):
  Real time             =    0,27 sec. (123,74 ticks)
Parallel b&c, 16 threads:
  Real time             =    0,13 sec. (56,27 ticks)
  Sync time (average)   =    0,06 sec.
  Wait time (average)   =    0,00 sec.
                          ------------
Total (root+branch&cut) =    0,40 sec. (180,01 ticks)
